p cnf 859 1881
a 1 2 3 4 5 6 7 8 9 10 11 12 13 15 16 17 18 19 20 21 22 23 24 25 26 27 28 29 30 31 32 33 34 35 36 37 38 39 40 41 42 43 44 45 46 47 48 49 53 54 55 56 57 58 62 66 67 68 69 70 71 72 73 80 81 82 0
e 14 50 51 52 59 60 61 63 64 65 74 75 76 77 78 79 83 84 85 86 87 88 89 90 91 92 93 94 95 96 97 98 99 100 101 102 103 104 105 106 107 108 109 110 111 112 113 114 115 116 117 118 119 120 121 122 123 124 125 126 127 128 129 130 131 132 133 134 135 136 137 138 139 140 141 142 143 144 145 146 147 148 149 150 151 152 153 154 155 156 157 158 159 160 161 162 163 164 165 166 167 168 169 170 171 172 173 174 175 176 177 178 179 180 181 182 183 184 185 186 187 188 189 190 191 192 193 194 195 196 197 198 199 200 201 202 203 204 205 206 207 208 209 210 211 212 213 214 215 216 217 218 219 220 221 222 223 224 225 226 227 228 229 230 231 232 233 234 235 236 237 238 239 240 241 242 243 244 245 246 247 248 249 250 251 252 253 254 255 256 257 258 259 260 261 262 263 264 265 266 267 268 269 270 271 272 273 274 275 276 277 278 279 280 281 282 283 284 285 286 287 288 289 290 291 292 293 294 295 296 297 298 299 300 301 302 303 304 305 306 307 308 309 310 311 312 313 314 315 316 317 318 319 320 321 322 323 324 325 326 327 328 329 330 331 332 333 334 335 336 337 338 339 340 341 342 343 344 345 346 347 348 349 350 351 352 353 354 355 356 357 358 359 360 361 362 363 364 365 366 367 368 369 370 371 372 373 374 375 376 377 378 379 380 381 382 383 384 385 386 387 388 389 390 391 392 393 394 395 396 397 398 399 400 401 402 403 404 405 406 407 408 409 410 411 412 413 414 415 416 417 418 419 420 421 422 423 424 425 426 427 428 429 430 431 432 433 434 435 436 437 438 439 440 441 442 443 444 445 446 447 448 449 450 451 452 453 454 455 456 457 458 459 460 461 462 463 464 465 466 467 468 469 470 471 472 473 474 475 476 477 478 479 480 481 482 483 484 485 486 487 488 489 490 491 492 493 494 495 496 497 498 499 500 501 502 503 504 505 506 507 508 509 510 511 512 513 514 515 516 517 518 519 520 521 522 523 524 525 526 527 528 529 530 531 532 533 534 535 536 537 538 539 540 541 542 543 544 545 546 547 548 549 550 551 552 553 554 555 556 557 558 559 560 561 562 563 564 565 566 567 568 569 570 571 572 573 574 575 576 577 578 579 580 581 582 583 584 585 586 587 588 589 590 591 592 593 594 595 596 597 598 599 600 601 602 603 604 605 606 607 608 609 610 611 612 613 614 615 616 617 618 619 620 621 622 623 624 625 626 627 628 629 630 631 632 633 634 635 636 637 638 639 640 641 642 643 644 645 646 647 648 649 650 651 652 653 654 655 656 657 658 659 660 661 662 663 664 665 666 667 668 669 670 671 672 673 674 675 676 677 678 679 680 681 682 683 684 685 686 687 688 689 690 691 692 693 694 695 696 697 698 699 700 701 702 703 704 705 706 707 708 709 710 711 712 713 714 715 716 717 718 719 720 721 722 723 724 725 726 727 728 729 730 731 732 733 734 735 736 737 738 739 740 741 742 743 744 745 746 747 748 749 750 751 752 753 754 755 756 757 758 759 760 761 762 763 764 765 766 767 768 769 770 771 772 773 774 775 776 777 778 779 780 781 782 783 784 785 786 787 788 789 790 791 792 793 794 795 796 797 798 799 800 801 802 803 804 805 806 807 808 809 810 811 812 813 814 815 816 817 818 819 820 821 822 823 824 825 826 827 828 829 830 831 832 833 834 835 836 837 838 839 840 841 842 843 844 845 846 847 848 849 850 851 852 853 854 855 856 857 858 859 0
-859 0
859 -471 0
859 -858 0
14 -857 61 52 65 -856 -855 -854 -853 -837 -821 -805 -789 -773 -757 -741 -725 -703 -687 -665 -649 -627 -605 -577 -549 -542 -534 -519 -510 -494 858 0
857 5 0
857 -4 0
856 4 0
856 -6 0
855 3 0
855 -2 0
854 2 0
854 -1 0
853 -842 0
853 -847 0
853 -852 0
39 38 37 56 57 73 72 -575 -851 -850 -849 -848 -574 -646 -645 852 0
851 75 0
851 6 0
850 -75 0
850 3 0
849 74 0
849 45 0
848 42 0
848 -74 0
25 24 26 54 53 71 70 -566 -846 -845 -565 -844 -843 -640 -639 847 0
846 75 0
846 4 0
845 -75 0
845 2 0
844 74 0
844 32 0
843 -74 0
843 29 0
12 11 10 69 68 48 47 -557 -841 -840 -839 -838 -555 -632 -631 842 0
841 75 0
841 5 0
840 -75 0
840 1 0
839 74 0
839 19 0
838 -74 0
838 16 0
837 -826 0
837 -831 0
837 -836 0
39 38 35 37 36 34 40 -835 -834 -684 -833 -722 -721 -832 -683 836 0
835 14 0
835 6 0
834 3 0
834 -14 0
833 45 0
833 14 0
832 42 0
832 -14 0
25 24 23 22 21 27 26 -830 -829 -716 -828 -678 -715 -827 -677 831 0
830 14 0
830 4 0
829 2 0
829 -14 0
828 32 0
828 14 0
827 29 0
827 -14 0
13 9 7 8 12 11 10 -671 -825 -824 -670 -709 -823 -708 -822 826 0
825 14 0
825 5 0
824 1 0
824 -14 0
823 14 0
823 19 0
822 16 0
822 -14 0
821 -810 0
821 -815 0
821 -820 0
39 38 37 36 56 73 72 -819 -818 -722 -721 -817 -625 -816 -624 820 0
819 51 0
819 6 0
818 -51 0
818 3 0
817 45 0
817 50 0
816 42 0
816 -50 0
25 24 23 26 53 71 70 -814 -813 -812 -618 -716 -715 -811 -617 815 0
814 51 0
814 4 0
813 -51 0
813 2 0
812 50 0
812 32 0
811 -50 0
811 29 0
9 12 11 10 69 68 47 -809 -808 -807 -611 -709 -708 -609 -806 810 0
809 51 0
809 5 0
808 -51 0
808 1 0
807 50 0
807 19 0
806 -50 0
806 16 0
805 -794 0
805 -799 0
805 -804 0
39 38 37 34 40 57 72 -803 -802 -646 -645 -625 -624 -801 -800 804 0
803 -52 0
803 3 0
802 52 0
802 6 0
801 45 0
801 52 0
800 42 0
800 -52 0
25 24 21 27 26 54 70 -798 -797 -796 -618 -640 -639 -617 -795 799 0
798 52 0
798 32 0
797 -52 0
797 2 0
796 52 0
796 4 0
795 -52 0
795 29 0
13 7 12 11 10 68 48 -793 -792 -611 -632 -631 -609 -791 -790 794 0
793 -52 0
793 1 0
792 52 0
792 5 0
791 52 0
791 19 0
790 -52 0
790 16 0
789 -778 0
789 -783 0
789 -788 0
38 35 37 56 40 58 57 -787 -786 -684 -646 -645 -683 -785 -784 788 0
787 45 0
787 51 0
786 50 0
786 6 0
785 42 0
785 -51 0
784 -50 0
784 3 0
25 24 22 27 54 53 55 -782 -640 -639 -678 -677 -781 -780 -779 783 0
782 51 0
782 32 0
781 50 0
781 4 0
780 -51 0
780 29 0
779 -50 0
779 2 0
13 8 11 10 49 48 47 -777 -671 -670 -632 -631 -776 -775 -774 778 0
777 51 0
777 19 0
776 50 0
776 5 0
775 -51 0
775 16 0
774 -50 0
774 1 0
773 -762 0
773 -767 0
773 -772 0
39 38 37 36 56 40 72 -771 -770 -769 -575 -574 -722 -721 -768 772 0
771 60 0
771 6 0
770 -60 0
770 3 0
769 42 0
769 -59 0
768 59 0
768 45 0
25 24 23 27 26 53 70 -766 -765 -566 -565 -716 -715 -764 -763 767 0
766 60 0
766 4 0
765 -60 0
765 2 0
764 59 0
764 32 0
763 -59 0
763 29 0
13 9 12 11 10 68 47 -761 -760 -759 -557 -709 -555 -708 -758 762 0
761 60 0
761 5 0
760 -60 0
760 1 0
759 -59 0
759 16 0
758 59 0
758 19 0
757 -746 0
757 -751 0
757 -756 0
39 38 37 34 40 57 72 -575 -755 -754 -574 -753 -752 -603 -602 756 0
755 61 0
755 6 0
754 -61 0
754 3 0
753 45 0
753 61 0
752 42 0
752 -61 0
25 24 21 27 26 54 70 -566 -750 -749 -565 -748 -747 -594 -593 751 0
750 61 0
750 4 0
749 -61 0
749 2 0
748 61 0
748 32 0
747 -61 0
747 29 0
13 7 12 11 10 68 48 -557 -745 -744 -555 -743 -742 -584 -583 746 0
745 61 0
745 5 0
744 -61 0
744 1 0
743 61 0
743 19 0
742 -61 0
742 16 0
741 -730 0
741 -735 0
741 -740 0
39 38 35 37 56 40 57 -739 -738 -737 -684 -683 -603 -602 -736 740 0
739 60 0
739 45 0
738 -59 0
738 3 0
737 59 0
737 6 0
736 42 0
736 -60 0
25 24 22 27 26 54 53 -734 -733 -732 -678 -677 -594 -593 -731 735 0
734 60 0
734 32 0
733 -59 0
733 2 0
732 59 0
732 4 0
731 -60 0
731 29 0
13 8 12 11 10 48 47 -729 -728 -671 -727 -726 -670 -584 -583 730 0
729 60 0
729 19 0
728 59 0
728 5 0
727 -59 0
727 1 0
726 -60 0
726 16 0
725 -710 0
725 -717 0
725 -724 0
39 38 36 56 40 72 82 -723 -722 -721 -720 -601 -719 -718 -600 724 0
723 64 0
723 6 0
722 46 0
722 14 0
721 43 0
721 -14 0
720 63 0
720 45 0
719 42 0
719 -63 0
718 -64 0
718 3 0
25 23 27 26 53 81 70 -716 -715 -714 -713 -592 -712 -711 -591 717 0
716 33 0
716 14 0
715 30 0
715 -14 0
714 63 0
714 32 0
713 64 0
713 4 0
712 -63 0
712 29 0
711 -64 0
711 2 0
13 9 12 11 68 47 80 -709 -708 -707 -706 -582 -705 -704 -581 710 0
709 14 0
709 20 0
708 17 0
708 -14 0
707 63 0
707 19 0
706 64 0
706 5 0
705 -63 0
705 16 0
704 -64 0
704 1 0
703 -692 0
703 -697 0
703 -702 0
39 34 67 40 57 72 82 -701 -601 -600 -700 -699 -698 -573 -572 702 0
701 65 0
701 6 0
700 65 0
700 45 0
699 42 0
699 -65 0
698 -65 0
698 3 0
21 27 26 54 81 66 70 -592 -591 -696 -695 -694 -693 -564 -563 697 0
696 65 0
696 32 0
695 65 0
695 4 0
694 -65 0
694 29 0
693 -65 0
693 2 0
13 7 12 68 48 62 80 -582 -581 -691 -690 -689 -688 -554 -553 692 0
691 65 0
691 19 0
690 65 0
690 5 0
689 -65 0
689 16 0
688 -65 0
688 1 0
687 -672 0
687 -679 0
687 -686 0
39 35 37 56 67 40 57 -685 -684 -683 -573 -572 -682 -681 -680 686 0
685 63 0
685 6 0
684 44 0
684 14 0
683 41 0
683 -14 0
682 64 0
682 45 0
681 42 0
681 -64 0
680 -63 0
680 3 0
24 22 27 26 54 53 66 -678 -677 -564 -563 -676 -675 -674 -673 679 0
678 31 0
678 14 0
677 28 0
677 -14 0
676 64 0
676 32 0
675 63 0
675 4 0
674 -64 0
674 29 0
673 -63 0
673 2 0
13 8 12 10 48 62 47 -671 -670 -554 -553 -669 -668 -667 -666 672 0
671 15 0
671 -14 0
670 14 0
670 18 0
669 64 0
669 19 0
668 63 0
668 5 0
667 -64 0
667 16 0
666 -63 0
666 1 0
665 -654 0
665 -659 0
665 -664 0
38 37 56 40 58 57 72 -663 -625 -624 -603 -602 -662 -661 -660 664 0
663 75 0
663 45 0
662 74 0
662 6 0
661 42 0
661 -75 0
660 -74 0
660 3 0
25 24 27 54 53 55 70 -658 -657 -618 -617 -594 -593 -656 -655 659 0
658 -75 0
658 29 0
657 75 0
657 32 0
656 74 0
656 4 0
655 -74 0
655 2 0
13 11 10 68 49 48 47 -653 -652 -611 -609 -584 -583 -651 -650 654 0
653 -75 0
653 16 0
652 75 0
652 19 0
651 74 0
651 5 0
650 -74 0
650 1 0
649 -634 0
649 -641 0
649 -648 0
39 38 56 40 57 72 82 -647 -646 -645 -601 -600 -644 -643 -642 648 0
647 45 0
647 76 0
646 46 0
646 52 0
645 43 0
645 -52 0
644 77 0
644 6 0
643 42 0
643 -76 0
642 -77 0
642 3 0
25 27 26 54 53 81 70 -640 -639 -592 -591 -638 -637 -636 -635 641 0
640 52 0
640 33 0
639 -52 0
639 30 0
638 76 0
638 32 0
637 77 0
637 4 0
636 -76 0
636 29 0
635 -77 0
635 2 0
13 12 11 68 48 47 80 -633 -632 -631 -582 -581 -630 -629 -628 634 0
633 76 0
633 19 0
632 52 0
632 20 0
631 -52 0
631 17 0
630 77 0
630 5 0
629 -76 0
629 16 0
628 -77 0
628 1 0
627 -612 0
627 -619 0
627 -626 0
39 37 56 67 40 57 72 -625 -624 -573 -572 -623 -622 -621 -620 626 0
625 44 0
625 52 0
624 41 0
624 -52 0
623 77 0
623 45 0
622 76 0
622 6 0
621 42 0
621 -77 0
620 -76 0
620 3 0
24 27 26 54 53 66 70 -618 -617 -564 -563 -616 -615 -614 -613 619 0
618 52 0
618 31 0
617 -52 0
617 28 0
616 77 0
616 32 0
615 76 0
615 4 0
614 -77 0
614 29 0
613 -76 0
613 2 0
13 12 10 68 48 62 47 -611 -610 -609 -554 -553 -608 -607 -606 612 0
611 -52 0
611 15 0
610 77 0
610 19 0
609 52 0
609 18 0
608 76 0
608 5 0
607 -77 0
607 16 0
606 -76 0
606 1 0
605 -586 0
605 -595 0
605 -604 0
39 38 56 57 73 72 82 -603 -602 -601 -600 -599 -598 -597 -596 604 0
603 46 0
603 61 0
602 43 0
602 -61 0
601 44 0
601 65 0
600 41 0
600 -65 0
599 78 0
599 45 0
598 79 0
598 6 0
597 42 0
597 -78 0
596 -79 0
596 3 0
25 26 54 53 81 71 70 -594 -593 -592 -591 -590 -589 -588 -587 595 0
594 61 0
594 33 0
593 -61 0
593 30 0
592 65 0
592 31 0
591 -65 0
591 28 0
590 78 0
590 32 0
589 79 0
589 4 0
588 -78 0
588 29 0
587 -79 0
587 2 0
12 11 69 68 48 47 80 -585 -584 -583 -582 -581 -580 -579 -578 586 0
585 78 0
585 19 0
584 61 0
584 20 0
583 -61 0
583 17 0
582 65 0
582 18 0
581 -65 0
581 15 0
580 79 0
580 5 0
579 -78 0
579 16 0
578 -79 0
578 1 0
577 -558 0
577 -567 0
577 -576 0
37 56 67 40 58 57 72 -575 -574 -573 -572 -571 -570 -569 -568 576 0
575 41 0
575 -61 0
574 44 0
574 61 0
573 65 0
573 46 0
572 43 0
572 -65 0
571 79 0
571 45 0
570 78 0
570 6 0
569 42 0
569 -79 0
568 -78 0
568 3 0
24 27 54 53 55 66 70 -566 -565 -564 -563 -562 -561 -560 -559 567 0
566 -61 0
566 28 0
565 61 0
565 31 0
564 65 0
564 33 0
563 -65 0
563 30 0
562 79 0
562 32 0
561 78 0
561 4 0
560 -79 0
560 29 0
559 -78 0
559 2 0
13 10 68 49 48 62 47 -557 -556 -555 -554 -553 -552 -551 -550 558 0
557 -61 0
557 15 0
556 79 0
556 19 0
555 61 0
555 18 0
554 65 0
554 20 0
553 -65 0
553 17 0
552 78 0
552 5 0
551 -79 0
551 16 0
550 -78 0
550 1 0
549 -545 0
549 -548 0
51 -528 -527 -547 -546 548 0
547 -525 0
547 74 0
546 -538 0
546 76 0
50 -504 -503 -544 -543 545 0
544 -501 0
544 59 0
543 -515 0
543 63 0
542 -537 0
542 -541 0
60 -524 -523 -540 -539 541 0
540 -529 0
540 75 0
539 -538 0
539 78 0
64 -532 -531 538 0
59 -488 -487 -536 -535 537 0
536 -485 0
536 50 0
535 -511 0
535 63 0
534 -522 0
534 -533 0
64 -532 -531 -530 -526 533 0
532 77 0
532 51 0
531 79 0
531 60 0
530 -529 0
530 77 0
51 -528 -527 529 0
528 64 0
528 76 0
527 74 0
527 60 0
526 -525 0
526 79 0
60 -524 -523 525 0
524 75 0
524 51 0
523 78 0
523 64 0
63 -473 -521 -472 -520 522 0
521 -478 0
521 50 0
520 -495 0
520 59 0
519 -514 0
519 -518 0
75 -500 -499 -517 -516 518 0
517 -505 0
517 60 0
516 -515 0
516 78 0
77 -508 -507 515 0
74 -484 -483 -513 -512 514 0
513 -489 0
513 51 0
512 -511 0
512 76 0
79 -492 -491 511 0
510 -498 0
510 -509 0
77 -508 -507 -506 -502 509 0
508 64 0
508 50 0
507 75 0
507 79 0
506 -505 0
506 64 0
50 -504 -503 505 0
504 75 0
504 59 0
503 77 0
503 63 0
502 -501 0
502 79 0
75 -500 -499 501 0
500 60 0
500 50 0
499 77 0
499 78 0
76 -477 -476 -497 -496 498 0
497 -474 0
497 51 0
496 -495 0
496 74 0
78 -481 -480 495 0
494 -482 0
494 -493 0
79 -492 -491 -490 -486 493 0
492 59 0
492 64 0
491 77 0
491 74 0
490 -489 0
490 64 0
59 -488 -487 489 0
488 74 0
488 50 0
487 79 0
487 63 0
486 -485 0
486 77 0
74 -484 -483 485 0
484 59 0
484 51 0
483 79 0
483 76 0
78 -481 -480 -479 -475 482 0
481 60 0
481 63 0
480 75 0
480 76 0
479 -478 0
479 75 0
76 -477 -476 478 0
477 63 0
477 51 0
476 78 0
476 74 0
475 -474 0
475 60 0
63 -473 -472 474 0
473 50 0
473 76 0
472 78 0
472 59 0
-470 -161 471 0
470 -189 0
470 -217 0
470 -239 0
470 -261 0
470 -277 0
470 -299 0
470 -315 0
470 -337 0
470 -353 0
470 -369 0
470 -385 0
470 -401 0
470 -417 0
470 -433 0
470 -449 0
470 -465 0
470 -466 0
470 -467 0
470 -468 0
470 -469 0
-5 4 469 0
-4 6 468 0
-3 2 467 0
-2 1 466 0
-464 -459 -454 465 0
464 -257 0
464 -258 0
464 -186 0
464 -460 0
464 -461 0
464 -462 0
464 -463 0
464 -187 0
464 -73 0
464 -72 0
464 -57 0
464 -56 0
464 -39 0
464 -38 0
464 -37 0
-3 75 463 0
-6 -75 462 0
-45 -74 461 0
-42 74 460 0
459 -251 0
459 -252 0
459 -455 0
459 -456 0
459 -177 0
459 -457 0
459 -458 0
459 -178 0
459 -71 0
459 -70 0
459 -54 0
459 -53 0
459 -26 0
459 -25 0
459 -24 0
-2 75 458 0
-4 -75 457 0
-32 -74 456 0
-29 74 455 0
454 -243 0
454 -244 0
454 -167 0
454 -450 0
454 -451 0
454 -452 0
454 -453 0
454 -169 0
454 -69 0
454 -68 0
454 -48 0
454 -47 0
454 -12 0
454 -11 0
454 -10 0
-1 75 453 0
-5 -75 452 0
-19 -74 451 0
-16 74 450 0
-448 -443 -438 449 0
448 -295 0
448 -444 0
448 -333 0
448 -334 0
448 -445 0
448 -296 0
448 -446 0
448 -447 0
448 -40 0
448 -39 0
448 -38 0
448 -37 0
448 -36 0
448 -35 0
448 -34 0
-3 14 447 0
-6 -14 446 0
-14 -45 445 0
14 -42 444 0
443 -289 0
443 -439 0
443 -327 0
443 -290 0
443 -440 0
443 -328 0
443 -441 0
443 -442 0
443 -27 0
443 -26 0
443 -25 0
443 -24 0
443 -23 0
443 -22 0
443 -21 0
-2 14 442 0
-4 -14 441 0
-14 -32 440 0
-29 14 439 0
438 -434 0
438 -320 0
438 -435 0
438 -321 0
438 -282 0
438 -283 0
438 -436 0
438 -437 0
438 -13 0
438 -12 0
438 -11 0
438 -10 0
438 -9 0
438 -8 0
438 -7 0
-1 14 437 0
-5 -14 436 0
-14 -19 435 0
-16 14 434 0
-432 -427 -422 433 0
432 -236 0
432 -428 0
432 -237 0
432 -429 0
432 -333 0
432 -334 0
432 -430 0
432 -431 0
432 -73 0
432 -72 0
432 -56 0
432 -39 0
432 -38 0
432 -37 0
432 -36 0
-6 -51 431 0
-3 51 430 0
-45 -50 429 0
-42 50 428 0
427 -229 0
427 -423 0
427 -327 0
427 -328 0
427 -230 0
427 -424 0
427 -425 0
427 -426 0
427 -71 0
427 -70 0
427 -53 0
427 -26 0
427 -25 0
427 -24 0
427 -23 0
-4 -51 426 0
-2 51 425 0
-32 -50 424 0
-29 50 423 0
422 -418 0
422 -221 0
422 -320 0
422 -321 0
422 -223 0
422 -419 0
422 -420 0
422 -421 0
422 -69 0
422 -68 0
422 -47 0
422 -12 0
422 -11 0
422 -10 0
422 -9 0
-5 -51 421 0
-1 51 420 0
-19 -50 419 0
-16 50 418 0
-416 -411 -406 417 0
416 -412 0
416 -413 0
416 -236 0
416 -237 0
416 -257 0
416 -258 0
416 -414 0
416 -415 0
416 -72 0
416 -57 0
416 -40 0
416 -39 0
416 -38 0
416 -37 0
416 -34 0
-6 -52 415 0
-3 52 414 0
-45 -52 413 0
-42 52 412 0
411 -407 0
411 -229 0
411 -251 0
411 -252 0
411 -230 0
411 -408 0
411 -409 0
411 -410 0
411 -70 0
411 -54 0
411 -27 0
411 -26 0
411 -25 0
411 -24 0
411 -21 0
-32 -52 410 0
-4 -52 409 0
-2 52 408 0
-29 52 407 0
406 -402 0
406 -403 0
406 -221 0
406 -243 0
406 -244 0
406 -223 0
406 -404 0
406 -405 0
406 -68 0
406 -48 0
406 -13 0
406 -12 0
406 -11 0
406 -10 0
406 -7 0
-5 -52 405 0
-1 52 404 0
-19 -52 403 0
-16 52 402 0
-400 -395 -390 401 0
400 -396 0
400 -397 0
400 -295 0
400 -257 0
400 -258 0
400 -296 0
400 -398 0
400 -399 0
400 -58 0
400 -57 0
400 -56 0
400 -40 0
400 -38 0
400 -37 0
400 -35 0
-45 -51 399 0
-6 -50 398 0
-42 51 397 0
-3 50 396 0
395 -391 0
395 -392 0
395 -393 0
395 -289 0
395 -290 0
395 -251 0
395 -252 0
395 -394 0
395 -55 0
395 -54 0
395 -53 0
395 -27 0
395 -25 0
395 -24 0
395 -22 0
-32 -51 394 0
-4 -50 393 0
-29 51 392 0
-2 50 391 0
390 -386 0
390 -387 0
390 -388 0
390 -243 0
390 -244 0
390 -282 0
390 -283 0
390 -389 0
390 -49 0
390 -48 0
390 -47 0
390 -13 0
390 -11 0
390 -10 0
390 -8 0
-19 -51 389 0
-5 -50 388 0
-16 51 387 0
-1 50 386 0
-384 -379 -374 385 0
384 -380 0
384 -333 0
384 -334 0
384 -186 0
384 -187 0
384 -381 0
384 -382 0
384 -383 0
384 -72 0
384 -56 0
384 -40 0
384 -39 0
384 -38 0
384 -37 0
384 -36 0
-6 -60 383 0
-3 60 382 0
-42 59 381 0
-45 -59 380 0
379 -375 0
379 -376 0
379 -327 0
379 -328 0
379 -177 0
379 -178 0
379 -377 0
379 -378 0
379 -70 0
379 -53 0
379 -27 0
379 -26 0
379 -25 0
379 -24 0
379 -23 0
-4 -60 378 0
-2 60 377 0
-32 -59 376 0
-29 59 375 0
374 -370 0
374 -320 0
374 -167 0
374 -321 0
374 -169 0
374 -371 0
374 -372 0
374 -373 0
374 -68 0
374 -47 0
374 -13 0
374 -12 0
374 -11 0
374 -10 0
374 -9 0
-5 -60 373 0
-1 60 372 0
-16 59 371 0
-19 -59 370 0
-368 -363 -358 369 0
368 -214 0
368 -215 0
368 -364 0
368 -365 0
368 -186 0
368 -366 0
368 -367 0
368 -187 0
368 -72 0
368 -57 0
368 -40 0
368 -39 0
368 -38 0
368 -37 0
368 -34 0
-3 61 367 0
-6 -61 366 0
-45 -61 365 0
-42 61 364 0
363 -205 0
363 -206 0
363 -359 0
363 -360 0
363 -177 0
363 -361 0
363 -362 0
363 -178 0
363 -70 0
363 -54 0
363 -27 0
363 -26 0
363 -25 0
363 -24 0
363 -21 0
-2 61 362 0
-4 -61 361 0
-32 -61 360 0
-29 61 359 0
358 -195 0
358 -196 0
358 -354 0
358 -355 0
358 -167 0
358 -356 0
358 -357 0
358 -169 0
358 -68 0
358 -48 0
358 -13 0
358 -12 0
358 -11 0
358 -10 0
358 -7 0
-1 61 357 0
-5 -61 356 0
-19 -61 355 0
-16 61 354 0
-352 -347 -342 353 0
352 -348 0
352 -214 0
352 -215 0
352 -295 0
352 -296 0
352 -349 0
352 -350 0
352 -351 0
352 -57 0
352 -56 0
352 -40 0
352 -39 0
352 -38 0
352 -37 0
352 -35 0
-45 -60 351 0
-3 59 350 0
-6 -59 349 0
-42 60 348 0
347 -343 0
347 -205 0
347 -206 0
347 -289 0
347 -290 0
347 -344 0
347 -345 0
347 -346 0
347 -54 0
347 -53 0
347 -27 0
347 -26 0
347 -25 0
347 -24 0
347 -22 0
-32 -60 346 0
-2 59 345 0
-4 -59 344 0
-29 60 343 0
342 -195 0
342 -196 0
342 -282 0
342 -338 0
342 -339 0
342 -283 0
342 -340 0
342 -341 0
342 -48 0
342 -47 0
342 -13 0
342 -12 0
342 -11 0
342 -10 0
342 -8 0
-19 -60 341 0
-5 -59 340 0
-1 59 339 0
-16 60 338 0
-336 -329 -322 337 0
336 -212 0
336 -330 0
336 -331 0
336 -213 0
336 -332 0
336 -333 0
336 -334 0
336 -335 0
336 -82 0
336 -72 0
336 -56 0
336 -40 0
336 -39 0
336 -38 0
336 -36 0
-6 -64 335 0
-14 -46 334 0
14 -43 333 0
-45 -63 332 0
-42 63 331 0
-3 64 330 0
329 -203 0
329 -323 0
329 -324 0
329 -204 0
329 -325 0
329 -326 0
329 -327 0
329 -328 0
329 -81 0
329 -70 0
329 -53 0
329 -27 0
329 -26 0
329 -25 0
329 -23 0
-14 -33 328 0
-30 14 327 0
-32 -63 326 0
-4 -64 325 0
-29 63 324 0
-2 64 323 0
322 -193 0
322 -316 0
322 -317 0
322 -194 0
322 -318 0
322 -319 0
322 -320 0
322 -321 0
322 -80 0
322 -68 0
322 -47 0
322 -13 0
322 -12 0
322 -11 0
322 -9 0
-14 -20 321 0
-17 14 320 0
-19 -63 319 0
-5 -64 318 0
-16 63 317 0
-1 64 316 0
-314 -309 -304 315 0
314 -184 0
314 -185 0
314 -310 0
314 -311 0
314 -312 0
314 -212 0
314 -213 0
314 -313 0
314 -82 0
314 -72 0
314 -67 0
314 -57 0
314 -40 0
314 -39 0
314 -34 0
-6 -65 313 0
-45 -65 312 0
-42 65 311 0
-3 65 310 0
309 -175 0
309 -176 0
309 -305 0
309 -306 0
309 -307 0
309 -308 0
309 -203 0
309 -204 0
309 -81 0
309 -70 0
309 -66 0
309 -54 0
309 -27 0
309 -26 0
309 -21 0
-32 -65 308 0
-4 -65 307 0
-29 65 306 0
-2 65 305 0
304 -165 0
304 -166 0
304 -300 0
304 -301 0
304 -302 0
304 -303 0
304 -193 0
304 -194 0
304 -80 0
304 -68 0
304 -62 0
304 -48 0
304 -13 0
304 -12 0
304 -7 0
-19 -65 303 0
-5 -65 302 0
-16 65 301 0
-1 65 300 0
-298 -291 -284 299 0
298 -292 0
298 -293 0
298 -294 0
298 -184 0
298 -185 0
298 -295 0
298 -296 0
298 -297 0
298 -67 0
298 -57 0
298 -56 0
298 -40 0
298 -39 0
298 -37 0
298 -35 0
-6 -63 297 0
-14 -44 296 0
14 -41 295 0
-45 -64 294 0
-42 64 293 0
-3 63 292 0
291 -285 0
291 -286 0
291 -287 0
291 -288 0
291 -175 0
291 -176 0
291 -289 0
291 -290 0
291 -66 0
291 -54 0
291 -53 0
291 -27 0
291 -26 0
291 -24 0
291 -22 0
-14 -31 290 0
-28 14 289 0
-32 -64 288 0
-4 -63 287 0
-29 64 286 0
-2 63 285 0
284 -278 0
284 -279 0
284 -280 0
284 -281 0
284 -165 0
284 -166 0
284 -282 0
284 -283 0
284 -62 0
284 -48 0
284 -47 0
284 -13 0
284 -12 0
284 -10 0
284 -8 0
-15 14 283 0
-14 -18 282 0
-19 -64 281 0
-5 -63 280 0
-16 64 279 0
-1 63 278 0
-276 -271 -266 277 0
276 -272 0
276 -273 0
276 -274 0
276 -214 0
276 -215 0
276 -236 0
276 -237 0
276 -275 0
276 -72 0
276 -58 0
276 -57 0
276 -56 0
276 -40 0
276 -38 0
276 -37 0
-45 -75 275 0
-6 -74 274 0
-42 75 273 0
-3 74 272 0
271 -267 0
271 -268 0
271 -205 0
271 -206 0
271 -229 0
271 -230 0
271 -269 0
271 -270 0
271 -70 0
271 -55 0
271 -54 0
271 -53 0
271 -27 0
271 -25 0
271 -24 0
-29 75 270 0
-32 -75 269 0
-4 -74 268 0
-2 74 267 0
266 -262 0
266 -263 0
266 -195 0
266 -196 0
266 -221 0
266 -223 0
266 -264 0
266 -265 0
266 -68 0
266 -49 0
266 -48 0
266 -47 0
266 -13 0
266 -11 0
266 -10 0
-16 75 265 0
-19 -75 264 0
-5 -74 263 0
-1 74 262 0
-260 -253 -246 261 0
260 -254 0
260 -255 0
260 -256 0
260 -212 0
260 -213 0
260 -257 0
260 -258 0
260 -259 0
260 -82 0
260 -72 0
260 -57 0
260 -56 0
260 -40 0
260 -39 0
260 -38 0
-45 -76 259 0
-46 -52 258 0
-43 52 257 0
-6 -77 256 0
-42 76 255 0
-3 77 254 0
253 -247 0
253 -248 0
253 -249 0
253 -250 0
253 -203 0
253 -204 0
253 -251 0
253 -252 0
253 -81 0
253 -70 0
253 -54 0
253 -53 0
253 -27 0
253 -26 0
253 -25 0
-33 -52 252 0
-30 52 251 0
-32 -76 250 0
-4 -77 249 0
-29 76 248 0
-2 77 247 0
246 -240 0
246 -241 0
246 -242 0
246 -193 0
246 -194 0
246 -243 0
246 -244 0
246 -245 0
246 -80 0
246 -68 0
246 -48 0
246 -47 0
246 -13 0
246 -12 0
246 -11 0
-19 -76 245 0
-20 -52 244 0
-17 52 243 0
-5 -77 242 0
-16 76 241 0
-1 77 240 0
-238 -231 -224 239 0
238 -232 0
238 -233 0
238 -234 0
238 -235 0
238 -184 0
238 -185 0
238 -236 0
238 -237 0
238 -72 0
238 -67 0
238 -57 0
238 -56 0
238 -40 0
238 -39 0
238 -37 0
-44 -52 237 0
-41 52 236 0
-45 -77 235 0
-6 -76 234 0
-42 77 233 0
-3 76 232 0
231 -225 0
231 -226 0
231 -227 0
231 -228 0
231 -175 0
231 -176 0
231 -229 0
231 -230 0
231 -70 0
231 -66 0
231 -54 0
231 -53 0
231 -27 0
231 -26 0
231 -24 0
-31 -52 230 0
-28 52 229 0
-32 -77 228 0
-4 -76 227 0
-29 77 226 0
-2 76 225 0
224 -218 0
224 -219 0
224 -220 0
224 -165 0
224 -166 0
224 -221 0
224 -222 0
224 -223 0
224 -68 0
224 -62 0
224 -48 0
224 -47 0
224 -13 0
224 -12 0
224 -10 0
-15 52 223 0
-19 -77 222 0
-18 -52 221 0
-5 -76 220 0
-16 77 219 0
-1 76 218 0
-216 -207 -198 217 0
216 -208 0
216 -209 0
216 -210 0
216 -211 0
216 -212 0
216 -213 0
216 -214 0
216 -215 0
216 -82 0
216 -73 0
216 -72 0
216 -57 0
216 -56 0
216 -39 0
216 -38 0
-46 -61 215 0
-43 61 214 0
-44 -65 213 0
-41 65 212 0
-45 -78 211 0
-6 -79 210 0
-42 78 209 0
-3 79 208 0
207 -199 0
207 -200 0
207 -201 0
207 -202 0
207 -203 0
207 -204 0
207 -205 0
207 -206 0
207 -81 0
207 -71 0
207 -70 0
207 -54 0
207 -53 0
207 -26 0
207 -25 0
-33 -61 206 0
-30 61 205 0
-31 -65 204 0
-28 65 203 0
-32 -78 202 0
-4 -79 201 0
-29 78 200 0
-2 79 199 0
198 -190 0
198 -191 0
198 -192 0
198 -193 0
198 -194 0
198 -195 0
198 -196 0
198 -197 0
198 -80 0
198 -69 0
198 -68 0
198 -48 0
198 -47 0
198 -12 0
198 -11 0
-19 -78 197 0
-20 -61 196 0
-17 61 195 0
-18 -65 194 0
-15 65 193 0
-5 -79 192 0
-16 78 191 0
-1 79 190 0
-188 -179 -170 189 0
188 -180 0
188 -181 0
188 -182 0
188 -183 0
188 -184 0
188 -185 0
188 -186 0
188 -187 0
188 -72 0
188 -67 0
188 -58 0
188 -57 0
188 -56 0
188 -40 0
188 -37 0
-41 61 187 0
-44 -61 186 0
-46 -65 185 0
-43 65 184 0
-45 -79 183 0
-6 -78 182 0
-42 79 181 0
-3 78 180 0
179 -171 0
179 -172 0
179 -173 0
179 -174 0
179 -175 0
179 -176 0
179 -177 0
179 -178 0
179 -70 0
179 -66 0
179 -55 0
179 -54 0
179 -53 0
179 -27 0
179 -24 0
-28 61 178 0
-31 -61 177 0
-33 -65 176 0
-30 65 175 0
-32 -79 174 0
-4 -78 173 0
-29 79 172 0
-2 78 171 0
170 -162 0
170 -163 0
170 -164 0
170 -165 0
170 -166 0
170 -167 0
170 -168 0
170 -169 0
170 -68 0
170 -62 0
170 -49 0
170 -48 0
170 -47 0
170 -13 0
170 -10 0
-15 61 169 0
-19 -79 168 0
-18 -61 167 0
-20 -65 166 0
-17 65 165 0
-5 -78 164 0
-16 79 163 0
-1 78 162 0
161 -105 0
161 -121 0
161 -130 0
161 -145 0
161 -153 0
161 -160 0
161 -65 0
161 -61 0
161 -52 0
161 -14 0
-159 -156 160 0
159 -157 0
159 -158 0
159 -138 0
159 -139 0
159 -51 0
-74 -136 158 0
-76 -149 157 0
156 -154 0
156 -155 0
156 -114 0
156 -115 0
156 -50 0
-59 -112 155 0
-63 -126 154 0
-152 -148 153 0
152 -150 0
152 -151 0
152 -134 0
152 -135 0
152 -60 0
-75 -140 151 0
-78 -149 150 0
149 -142 0
149 -143 0
149 -64 0
148 -146 0
148 -147 0
148 -98 0
148 -99 0
148 -59 0
-50 -96 147 0
-63 -122 146 0
-144 -133 145 0
144 -137 0
144 -141 0
144 -142 0
144 -143 0
144 -64 0
-51 -77 143 0
-60 -79 142 0
-77 -140 141 0
140 -138 0
140 -139 0
140 -51 0
-64 -76 139 0
-60 -74 138 0
-79 -136 137 0
136 -134 0
136 -135 0
136 -60 0
-51 -75 135 0
-64 -78 134 0
133 -131 0
133 -83 0
133 -132 0
133 -84 0
133 -63 0
-50 -89 132 0
-59 -106 131 0
-129 -125 130 0
129 -127 0
129 -128 0
129 -110 0
129 -111 0
129 -75 0
-60 -116 128 0
-78 -126 127 0
126 -118 0
126 -119 0
126 -77 0
125 -123 0
125 -124 0
125 -94 0
125 -95 0
125 -74 0
-51 -100 124 0
-76 -122 123 0
122 -102 0
122 -103 0
122 -79 0
-120 -109 121 0
120 -113 0
120 -117 0
120 -118 0
120 -119 0
120 -77 0
-50 -64 119 0
-75 -79 118 0
-64 -116 117 0
116 -114 0
116 -115 0
116 -50 0
-59 -75 115 0
-63 -77 114 0
-79 -112 113 0
112 -110 0
112 -111 0
112 -75 0
-50 -60 111 0
-77 -78 110 0
109 -107 0
109 -108 0
109 -87 0
109 -88 0
109 -76 0
-51 -85 108 0
-74 -106 107 0
106 -91 0
106 -92 0
106 -78 0
-104 -93 105 0
104 -97 0
104 -101 0
104 -102 0
104 -103 0
104 -79 0
-59 -64 103 0
-74 -77 102 0
-64 -100 101 0
100 -98 0
100 -99 0
100 -59 0
-50 -74 99 0
-63 -79 98 0
-77 -96 97 0
96 -94 0
96 -95 0
96 -74 0
-51 -59 95 0
-76 -79 94 0
93 -86 0
93 -90 0
93 -91 0
93 -92 0
93 -78 0
-60 -63 92 0
-75 -76 91 0
-75 -89 90 0
89 -87 0
89 -88 0
89 -76 0
-51 -63 88 0
-74 -78 87 0
-60 -85 86 0
85 -83 0
85 -84 0
85 -63 0
-50 -76 84 0
-59 -78 83 0
